c L'union de 10 graphes à deux sommets et une arête. χ(G) = 2
c
p cnf 20 20
1 20 0
1 20 0
2 19 0
2 19 0
3 18 0
3 18 0
4 17 0
4 17 0
5 16 0
5 16 0
6 15 0
6 15 0
7 14 0
7 14 0
8 13 0
8 13 0
9 12 0
9 12 0
10 11 0
10 11 0
